Set parameter TokenServer to value "hpc-licenses.hpcc.usc.edu"
Set parameter TimeLimit to value 3600
Gurobi Optimizer version 9.5.1 build v9.5.1rc2 (linux64)
Thread count: 20 physical cores, 20 logical processors, using up to 20 threads
Optimize a model with 6007 rows, 4529 columns and 24534 nonzeros
Model fingerprint: 0x4c865632
Variable types: 4506 continuous, 23 integer (23 binary)
Coefficient statistics:
  Matrix range     [1e+00, 1e+00]
  Objective range  [7e-05, 1e+00]
  Bounds range     [1e+00, 1e+00]
  RHS range        [1e+00, 1e+02]
Presolve removed 1520 rows and 1515 columns
Presolve time: 0.09s
Presolved: 4487 rows, 3014 columns, 21975 nonzeros
Variable types: 2994 continuous, 20 integer (20 binary)
Found heuristic solution: objective 262.6407021

Root relaxation: objective 2.738725e+02, 3487 iterations, 0.14 seconds (0.15 work units)

    Nodes    |    Current Node    |     Objective Bounds      |     Work
 Expl Unexpl |  Obj  Depth IntInf | Incumbent    BestBd   Gap | It/Node Time

     0     0  273.87250    0    2  262.64070  273.87250  4.28%     -    0s
     0     0  273.84928    0    2  262.64070  273.84928  4.27%     -    0s
H    0     0                     264.4263641  273.84928  3.56%     -    0s
     0     0  273.78614    0    2  264.42636  273.78614  3.54%     -    0s
     0     0  272.83999    0    2  264.42636  272.83999  3.18%     -    0s
     0     0  272.66524    0    3  264.42636  272.66524  3.12%     -    0s
     0     0  272.40878    0    3  264.42636  272.40878  3.02%     -    0s
     0     0  272.40878    0    3  264.42636  272.40878  3.02%     -    0s
     0     0  272.40878    0    3  264.42636  272.40878  3.02%     -    0s
     0     0  272.40878    0    2  264.42636  272.40878  3.02%     -    0s
H    0     0                     266.0547247  272.40709  2.39%     -    0s
     0     0  272.40709    0    3  266.05472  272.40709  2.39%     -    1s
     0     0  272.40709    0    3  266.05472  272.40709  2.39%     -    1s
     0     0  272.02436    0    2  266.05472  272.02436  2.24%     -    1s
H    0     0                     266.2410143  272.02436  2.17%     -    1s
H    0     0                     271.8356685  272.02436  0.07%     -    1s
     0     0  272.01775    0    3  271.83567  272.01775  0.07%     -    1s
     0     0  272.01775    0    2  271.83567  272.01775  0.07%     -    1s
     0     0  272.01775    0    2  271.83567  272.01775  0.07%     -    2s
     0     0  272.01775    0    2  271.83567  272.01775  0.07%     -    2s
     0     0  272.01775    0    3  271.83567  272.01775  0.07%     -    2s
     0     0  272.01775    0    2  271.83567  272.01775  0.07%     -    2s
     0     0  272.01775    0    3  271.83567  272.01775  0.07%     -    2s
     0     0  272.01775    0    2  271.83567  272.01775  0.07%     -    2s

Cutting planes:
  Gomory: 3
  MIR: 579
  Flow cover: 41
  RLT: 12

Explored 1 nodes (7520 simplex iterations) in 2.79 seconds (1.25 work units)
Thread count was 20 (of 20 available processors)

Solution count 5: 271.836 266.241 266.055 ... 262.641

Optimal solution found (tolerance 1.00e-04)
Best objective 2.718356685182e+02, best bound 2.718356685182e+02, gap 0.0000%



#########node  1
V1.7
#########node  2
0.047619047619047616,0.9523809523809523
#########node  3
1.0,0.0


Total Solving Time 3.187751531600952
obj value 271.8356685182191
Policy Regret train (Sum) 9.912030792665206
Best Treatment Found train (%) 57.599999999999994
treatment classification acc train (%) 28.799999999999997
Policy Regret test (Sum) 38.72832714295484
Best Treatment Found test (%) 81.04
treatment classification acc test (%) 25.619999999999997
